1617256800
1617287400
1617287400
1617291900
1618207200
1618237800
1618237800
1618242120
1618293600
1618324200
1618324200
1618325100
1618379400
1618410600
1618465860
1618497000
1618497000
1618502400
1618552800
1618583400
1618583400
1618585200
1618812000
1618842600
1618898400
1618929000
1618984800
1619015400
1619071200
1619101800
1619157600
1619188200
1619188200
1619189100
1619416800
1619447400
1619503200
1619533800
1619589600
1619620200
1619620200
1619621700
1619676000
1619706600
1619706600
1619709300
1619762400
1619793000
1619793000
1619794800
